p cnf 200 1110
-101 -81 0
-101 76 0
-101 -84 0
-101 -82 0
-101 -95 0
-101 99 0
-101 -27 0
-101 1 0
-101 -68 0
-101 34 0
101 81 -76 84 82 95 -99 27 -1 68 -34 0
-102 82 0
-102 3 0
-102 -85 0
-102 42 0
-102 -58 0
-102 81 0
-102 91 0
-102 18 0
-102 -96 0
-102 -44 0
102 -82 -3 85 -42 58 -81 -91 -18 96 44 0
-103 61 0
-103 67 0
-103 -32 0
-103 84 0
-103 23 0
-103 -49 0
-103 43 0
-103 -64 0
-103 -96 0
-103 7 0
103 -61 -67 32 -84 -23 49 -43 64 96 -7 0
-104 -69 0
-104 -11 0
-104 96 0
-104 90 0
-104 15 0
-104 -44 0
-104 42 0
-104 6 0
-104 -93 0
-104 -99 0
104 69 11 -96 -90 -15 44 -42 -6 93 99 0
-105 -47 0
-105 -35 0
-105 -68 0
-105 -9 0
-105 -84 0
-105 -53 0
-105 49 0
-105 31 0
-105 11 0
-105 72 0
105 47 35 68 9 84 53 -49 -31 -11 -72 0
-106 -45 0
-106 -74 0
-106 -11 0
-106 16 0
-106 -70 0
-106 84 0
-106 19 0
-106 -49 0
-106 -7 0
-106 -94 0
106 45 74 11 -16 70 -84 -19 49 7 94 0
-107 66 0
-107 -40 0
-107 -36 0
-107 -4 0
-107 -85 0
-107 16 0
-107 -57 0
-107 -35 0
-107 15 0
-107 37 0
107 -66 40 36 4 85 -16 57 35 -15 -37 0
-108 83 0
-108 -9 0
-108 -51 0
-108 -84 0
-108 -31 0
-108 47 0
-108 -26 0
-108 -96 0
-108 93 0
-108 -22 0
108 -83 9 51 84 31 -47 26 96 -93 22 0
-109 82 0
-109 37 0
-109 -41 0
-109 42 0
-109 47 0
-109 53 0
-109 -84 0
-109 74 0
-109 25 0
-109 6 0
109 -82 -37 41 -42 -47 -53 84 -74 -25 -6 0
-110 -12 0
-110 -65 0
-110 -31 0
-110 -40 0
-110 -99 0
-110 41 0
-110 1 0
-110 89 0
-110 -44 0
-110 -83 0
110 12 65 31 40 99 -41 -1 -89 44 83 0
101 102 103 104 105 106 107 108 109 110 0
-111 -90 0
-111 -45 0
-111 -26 0
-111 -5 0
-111 -85 0
-111 3 0
-111 -25 0
-111 -31 0
-111 52 0
-111 6 0
111 90 45 26 5 85 -3 25 31 -52 -6 0
-112 -79 0
-112 1 0
-112 -48 0
-112 -94 0
-112 -30 0
-112 -57 0
-112 -80 0
-112 -2 0
-112 6 0
-112 -97 0
112 79 -1 48 94 30 57 80 2 -6 97 0
-113 76 0
-113 -28 0
-113 -4 0
-113 37 0
-113 -30 0
-113 -22 0
-113 -64 0
-113 -2 0
-113 -24 0
-113 78 0
113 -76 28 4 -37 30 22 64 2 24 -78 0
-114 74 0
-114 2 0
-114 58 0
-114 31 0
-114 -72 0
-114 -28 0
-114 -24 0
-114 -45 0
-114 93 0
-114 40 0
114 -74 -2 -58 -31 72 28 24 45 -93 -40 0
-115 90 0
-115 28 0
-115 -95 0
-115 21 0
-115 58 0
-115 -38 0
-115 -30 0
-115 85 0
-115 -86 0
-115 60 0
115 -90 -28 95 -21 -58 38 30 -85 86 -60 0
-116 58 0
-116 -12 0
-116 -30 0
-116 -83 0
-116 40 0
-116 81 0
-116 21 0
-116 -57 0
-116 33 0
-116 55 0
116 -58 12 30 83 -40 -81 -21 57 -33 -55 0
-117 -37 0
-117 60 0
-117 25 0
-117 16 0
-117 -97 0
-117 -64 0
-117 1 0
-117 -48 0
-117 -62 0
-117 -10 0
117 37 -60 -25 -16 97 64 -1 48 62 10 0
-118 -49 0
-118 27 0
-118 75 0
-118 74 0
-118 -63 0
-118 -98 0
-118 86 0
-118 93 0
-118 21 0
-118 -78 0
118 49 -27 -75 -74 63 98 -86 -93 -21 78 0
-119 -78 0
-119 -32 0
-119 -50 0
-119 -73 0
-119 -51 0
-119 46 0
-119 21 0
-119 -66 0
-119 -71 0
-119 -62 0
119 78 32 50 73 51 -46 -21 66 71 62 0
-120 59 0
-120 -68 0
-120 -76 0
-120 32 0
-120 81 0
-120 -67 0
-120 38 0
-120 -100 0
-120 91 0
-120 -10 0
120 -59 68 76 -32 -81 67 -38 100 -91 10 0
111 112 113 114 115 116 117 118 119 120 0
-121 -53 0
-121 -79 0
-121 -87 0
-121 50 0
-121 -8 0
-121 16 0
-121 -63 0
-121 65 0
-121 -62 0
-121 -19 0
121 53 79 87 -50 8 -16 63 -65 62 19 0
-122 35 0
-122 -66 0
-122 -49 0
-122 20 0
-122 -28 0
-122 13 0
-122 -54 0
-122 -75 0
-122 -50 0
-122 -55 0
122 -35 66 49 -20 28 -13 54 75 50 55 0
-123 55 0
-123 -16 0
-123 -63 0
-123 -89 0
-123 86 0
-123 99 0
-123 30 0
-123 61 0
-123 -20 0
-123 67 0
123 -55 16 63 89 -86 -99 -30 -61 20 -67 0
-124 -96 0
-124 -75 0
-124 51 0
-124 78 0
-124 30 0
-124 -68 0
-124 -100 0
-124 -71 0
-124 76 0
-124 98 0
124 96 75 -51 -78 -30 68 100 71 -76 -98 0
-125 -93 0
-125 63 0
-125 -2 0
-125 -57 0
-125 38 0
-125 -24 0
-125 -99 0
-125 47 0
-125 71 0
-125 60 0
125 93 -63 2 57 -38 24 99 -47 -71 -60 0
-126 53 0
-126 -36 0
-126 -80 0
-126 54 0
-126 22 0
-126 -58 0
-126 72 0
-126 -48 0
-126 21 0
-126 86 0
126 -53 36 80 -54 -22 58 -72 48 -21 -86 0
-127 -19 0
-127 -39 0
-127 -81 0
-127 5 0
-127 -63 0
-127 -29 0
-127 -4 0
-127 -64 0
-127 -74 0
-127 73 0
127 19 39 81 -5 63 29 4 64 74 -73 0
-128 37 0
-128 -11 0
-128 -57 0
-128 21 0
-128 -86 0
-128 -33 0
-128 -42 0
-128 -83 0
-128 -74 0
-128 -81 0
128 -37 11 57 -21 86 33 42 83 74 81 0
-129 -19 0
-129 97 0
-129 8 0
-129 -82 0
-129 68 0
-129 -96 0
-129 77 0
-129 -16 0
-129 -28 0
-129 72 0
129 19 -97 -8 82 -68 96 -77 16 28 -72 0
-130 -53 0
-130 45 0
-130 60 0
-130 -57 0
-130 -42 0
-130 20 0
-130 -18 0
-130 83 0
-130 15 0
-130 -72 0
130 53 -45 -60 57 42 -20 18 -83 -15 72 0
121 122 123 124 125 126 127 128 129 130 0
-131 77 0
-131 -70 0
-131 81 0
-131 -100 0
-131 75 0
-131 -40 0
-131 -69 0
-131 -22 0
-131 -21 0
-131 -71 0
131 -77 70 -81 100 -75 40 69 22 21 71 0
-132 50 0
-132 -34 0
-132 -70 0
-132 -37 0
-132 -41 0
-132 31 0
-132 80 0
-132 -47 0
-132 -26 0
-132 68 0
132 -50 34 70 37 41 -31 -80 47 26 -68 0
-133 73 0
-133 -24 0
-133 34 0
-133 64 0
-133 -78 0
-133 90 0
-133 37 0
-133 -38 0
-133 6 0
-133 11 0
133 -73 24 -34 -64 78 -90 -37 38 -6 -11 0
-134 13 0
-134 21 0
-134 -97 0
-134 72 0
-134 -33 0
-134 -41 0
-134 49 0
-134 -37 0
-134 66 0
-134 68 0
134 -13 -21 97 -72 33 41 -49 37 -66 -68 0
-135 75 0
-135 -11 0
-135 13 0
-135 49 0
-135 -26 0
-135 -28 0
-135 66 0
-135 48 0
-135 -23 0
-135 -39 0
135 -75 11 -13 -49 26 28 -66 -48 23 39 0
-136 30 0
-136 19 0
-136 -99 0
-136 -81 0
-136 -49 0
-136 -2 0
-136 -80 0
-136 39 0
-136 -72 0
-136 -91 0
136 -30 -19 99 81 49 2 80 -39 72 91 0
-137 11 0
-137 -46 0
-137 -36 0
-137 -91 0
-137 23 0
-137 22 0
-137 -89 0
-137 -90 0
-137 4 0
-137 25 0
137 -11 46 36 91 -23 -22 89 90 -4 -25 0
-138 52 0
-138 2 0
-138 80 0
-138 82 0
-138 84 0
-138 9 0
-138 29 0
-138 91 0
-138 96 0
-138 14 0
138 -52 -2 -80 -82 -84 -9 -29 -91 -96 -14 0
-139 44 0
-139 34 0
-139 -42 0
-139 -95 0
-139 27 0
-139 40 0
-139 -33 0
-139 97 0
-139 -96 0
-139 -32 0
139 -44 -34 42 95 -27 -40 33 -97 96 32 0
-140 -40 0
-140 14 0
-140 87 0
-140 28 0
-140 16 0
-140 21 0
-140 -19 0
-140 -54 0
-140 -69 0
-140 -73 0
140 40 -14 -87 -28 -16 -21 19 54 69 73 0
131 132 133 134 135 136 137 138 139 140 0
-141 27 0
-141 -25 0
-141 -71 0
-141 22 0
-141 -7 0
-141 56 0
-141 94 0
-141 -38 0
-141 -62 0
-141 3 0
141 -27 25 71 -22 7 -56 -94 38 62 -3 0
-142 -14 0
-142 -100 0
-142 -56 0
-142 -77 0
-142 -5 0
-142 96 0
-142 48 0
-142 39 0
-142 29 0
-142 -51 0
142 14 100 56 77 5 -96 -48 -39 -29 51 0
-143 -86 0
-143 -21 0
-143 -17 0
-143 93 0
-143 -37 0
-143 -99 0
-143 -79 0
-143 58 0
-143 -22 0
-143 -92 0
143 86 21 17 -93 37 99 79 -58 22 92 0
-144 -42 0
-144 -24 0
-144 90 0
-144 10 0
-144 70 0
-144 37 0
-144 84 0
-144 -48 0
-144 26 0
-144 99 0
144 42 24 -90 -10 -70 -37 -84 48 -26 -99 0
-145 -84 0
-145 26 0
-145 24 0
-145 50 0
-145 68 0
-145 -67 0
-145 -25 0
-145 48 0
-145 -74 0
-145 86 0
145 84 -26 -24 -50 -68 67 25 -48 74 -86 0
-146 -64 0
-146 -41 0
-146 83 0
-146 -32 0
-146 -51 0
-146 54 0
-146 -2 0
-146 -47 0
-146 -69 0
-146 -22 0
146 64 41 -83 32 51 -54 2 47 69 22 0
-147 -55 0
-147 66 0
-147 -5 0
-147 -4 0
-147 -92 0
-147 -95 0
-147 -69 0
-147 -98 0
-147 -38 0
-147 19 0
147 55 -66 5 4 92 95 69 98 38 -19 0
-148 51 0
-148 -36 0
-148 -96 0
-148 60 0
-148 -54 0
-148 -13 0
-148 34 0
-148 -21 0
-148 77 0
-148 -64 0
148 -51 36 96 -60 54 13 -34 21 -77 64 0
-149 -42 0
-149 48 0
-149 47 0
-149 60 0
-149 35 0
-149 -23 0
-149 89 0
-149 29 0
-149 9 0
-149 -51 0
149 42 -48 -47 -60 -35 23 -89 -29 -9 51 0
-150 84 0
-150 -92 0
-150 -29 0
-150 36 0
-150 59 0
-150 97 0
-150 -83 0
-150 -58 0
-150 16 0
-150 40 0
150 -84 92 29 -36 -59 -97 83 58 -16 -40 0
141 142 143 144 145 146 147 148 149 150 0
-151 81 0
-151 14 0
-151 51 0
-151 -70 0
-151 -56 0
-151 64 0
-151 35 0
-151 13 0
-151 87 0
-151 -71 0
151 -81 -14 -51 70 56 -64 -35 -13 -87 71 0
-152 -75 0
-152 52 0
-152 -68 0
-152 91 0
-152 85 0
-152 19 0
-152 100 0
-152 59 0
-152 -65 0
-152 25 0
152 75 -52 68 -91 -85 -19 -100 -59 65 -25 0
-153 48 0
-153 96 0
-153 -60 0
-153 2 0
-153 -51 0
-153 -61 0
-153 66 0
-153 47 0
-153 -57 0
-153 3 0
153 -48 -96 60 -2 51 61 -66 -47 57 -3 0
-154 12 0
-154 -28 0
-154 -41 0
-154 91 0
-154 19 0
-154 56 0
-154 88 0
-154 -95 0
-154 -90 0
-154 31 0
154 -12 28 41 -91 -19 -56 -88 95 90 -31 0
-155 52 0
-155 36 0
-155 -99 0
-155 -95 0
-155 -73 0
-155 -10 0
-155 3 0
-155 -47 0
-155 -46 0
-155 1 0
155 -52 -36 99 95 73 10 -3 47 46 -1 0
-156 -32 0
-156 22 0
-156 -85 0
-156 65 0
-156 -2 0
-156 57 0
-156 54 0
-156 -95 0
-156 -94 0
-156 72 0
156 32 -22 85 -65 2 -57 -54 95 94 -72 0
-157 31 0
-157 -34 0
-157 48 0
-157 8 0
-157 -15 0
-157 -35 0
-157 -30 0
-157 -28 0
-157 10 0
-157 84 0
157 -31 34 -48 -8 15 35 30 28 -10 -84 0
-158 6 0
-158 -11 0
-158 -78 0
-158 48 0
-158 36 0
-158 -55 0
-158 -96 0
-158 80 0
-158 8 0
-158 12 0
158 -6 11 78 -48 -36 55 96 -80 -8 -12 0
-159 51 0
-159 39 0
-159 96 0
-159 -85 0
-159 -4 0
-159 -43 0
-159 47 0
-159 5 0
-159 -56 0
-159 -77 0
159 -51 -39 -96 85 4 43 -47 -5 56 77 0
-160 99 0
-160 14 0
-160 44 0
-160 48 0
-160 28 0
-160 94 0
-160 -35 0
-160 -2 0
-160 -17 0
-160 -41 0
160 -99 -14 -44 -48 -28 -94 35 2 17 41 0
151 152 153 154 155 156 157 158 159 160 0
-161 69 0
-161 100 0
-161 -62 0
-161 89 0
-161 67 0
-161 47 0
-161 -33 0
-161 59 0
-161 84 0
-161 11 0
161 -69 -100 62 -89 -67 -47 33 -59 -84 -11 0
-162 56 0
-162 -23 0
-162 -68 0
-162 -20 0
-162 88 0
-162 98 0
-162 -51 0
-162 -67 0
-162 -79 0
-162 -83 0
162 -56 23 68 20 -88 -98 51 67 79 83 0
-163 -55 0
-163 -75 0
-163 -78 0
-163 18 0
-163 -26 0
-163 81 0
-163 -57 0
-163 3 0
-163 37 0
-163 25 0
163 55 75 78 -18 26 -81 57 -3 -37 -25 0
-164 -75 0
-164 -87 0
-164 33 0
-164 -30 0
-164 8 0
-164 2 0
-164 -37 0
-164 1 0
-164 -58 0
-164 -91 0
164 75 87 -33 30 -8 -2 37 -1 58 91 0
-165 -30 0
-165 -13 0
-165 -49 0
-165 33 0
-165 69 0
-165 -52 0
-165 41 0
-165 -55 0
-165 24 0
-165 -44 0
165 30 13 49 -33 -69 52 -41 55 -24 44 0
-166 -43 0
-166 -57 0
-166 -1 0
-166 95 0
-166 84 0
-166 9 0
-166 76 0
-166 67 0
-166 24 0
-166 98 0
166 43 57 1 -95 -84 -9 -76 -67 -24 -98 0
-167 -93 0
-167 34 0
-167 79 0
-167 99 0
-167 -15 0
-167 43 0
-167 59 0
-167 -84 0
-167 -94 0
-167 46 0
167 93 -34 -79 -99 15 -43 -59 84 94 -46 0
-168 88 0
-168 91 0
-168 -9 0
-168 75 0
-168 -2 0
-168 -97 0
-168 -96 0
-168 95 0
-168 -62 0
-168 30 0
168 -88 -91 9 -75 2 97 96 -95 62 -30 0
-169 43 0
-169 -65 0
-169 96 0
-169 -72 0
-169 56 0
-169 46 0
-169 1 0
-169 -8 0
-169 89 0
-169 45 0
169 -43 65 -96 72 -56 -46 -1 8 -89 -45 0
-170 75 0
-170 -22 0
-170 -63 0
-170 -99 0
-170 32 0
-170 73 0
-170 -31 0
-170 51 0
-170 86 0
-170 -76 0
170 -75 22 63 99 -32 -73 31 -51 -86 76 0
161 162 163 164 165 166 167 168 169 170 0
-171 -31 0
-171 69 0
-171 27 0
-171 -36 0
-171 -23 0
-171 99 0
-171 90 0
-171 -54 0
-171 -5 0
-171 29 0
171 31 -69 -27 36 23 -99 -90 54 5 -29 0
-172 -72 0
-172 67 0
-172 -66 0
-172 52 0
-172 94 0
-172 29 0
-172 48 0
-172 -95 0
-172 23 0
-172 -17 0
172 72 -67 66 -52 -94 -29 -48 95 -23 17 0
-173 -37 0
-173 36 0
-173 -26 0
-173 -8 0
-173 -7 0
-173 -83 0
-173 62 0
-173 98 0
-173 66 0
-173 -14 0
173 37 -36 26 8 7 83 -62 -98 -66 14 0
-174 -40 0
-174 19 0
-174 -17 0
-174 27 0
-174 -24 0
-174 88 0
-174 -60 0
-174 59 0
-174 43 0
-174 -6 0
174 40 -19 17 -27 24 -88 60 -59 -43 6 0
-175 30 0
-175 -67 0
-175 90 0
-175 -59 0
-175 -84 0
-175 -89 0
-175 -29 0
-175 11 0
-175 -17 0
-175 39 0
175 -30 67 -90 59 84 89 29 -11 17 -39 0
-176 -72 0
-176 3 0
-176 -71 0
-176 43 0
-176 89 0
-176 -45 0
-176 -20 0
-176 -55 0
-176 68 0
-176 -21 0
176 72 -3 71 -43 -89 45 20 55 -68 21 0
-177 -26 0
-177 6 0
-177 69 0
-177 45 0
-177 32 0
-177 -85 0
-177 33 0
-177 25 0
-177 -7 0
-177 -78 0
177 26 -6 -69 -45 -32 85 -33 -25 7 78 0
-178 8 0
-178 91 0
-178 34 0
-178 -20 0
-178 28 0
-178 16 0
-178 -77 0
-178 93 0
-178 -72 0
-178 -49 0
178 -8 -91 -34 20 -28 -16 77 -93 72 49 0
-179 -87 0
-179 -26 0
-179 -81 0
-179 71 0
-179 36 0
-179 30 0
-179 -48 0
-179 18 0
-179 -51 0
-179 22 0
179 87 26 81 -71 -36 -30 48 -18 51 -22 0
-180 -50 0
-180 57 0
-180 92 0
-180 -29 0
-180 34 0
-180 -31 0
-180 46 0
-180 33 0
-180 70 0
-180 -84 0
180 50 -57 -92 29 -34 31 -46 -33 -70 84 0
171 172 173 174 175 176 177 178 179 180 0
-181 15 0
-181 -54 0
-181 -10 0
-181 -76 0
-181 3 0
-181 -85 0
-181 -33 0
-181 -78 0
-181 -82 0
-181 62 0
181 -15 54 10 76 -3 85 33 78 82 -62 0
-182 -30 0
-182 10 0
-182 1 0
-182 26 0
-182 -19 0
-182 -64 0
-182 -47 0
-182 -8 0
-182 -78 0
-182 79 0
182 30 -10 -1 -26 19 64 47 8 78 -79 0
-183 5 0
-183 34 0
-183 -93 0
-183 87 0
-183 100 0
-183 -6 0
-183 12 0
-183 -53 0
-183 -42 0
-183 2 0
183 -5 -34 93 -87 -100 6 -12 53 42 -2 0
-184 -85 0
-184 -66 0
-184 61 0
-184 -99 0
-184 -87 0
-184 -12 0
-184 -9 0
-184 97 0
-184 44 0
-184 54 0
184 85 66 -61 99 87 12 9 -97 -44 -54 0
-185 -54 0
-185 57 0
-185 23 0
-185 -88 0
-185 -51 0
-185 65 0
-185 -17 0
-185 -4 0
-185 20 0
-185 -59 0
185 54 -57 -23 88 51 -65 17 4 -20 59 0
-186 55 0
-186 -85 0
-186 40 0
-186 -34 0
-186 42 0
-186 12 0
-186 15 0
-186 19 0
-186 89 0
-186 82 0
186 -55 85 -40 34 -42 -12 -15 -19 -89 -82 0
-187 -77 0
-187 48 0
-187 -46 0
-187 -78 0
-187 -88 0
-187 -8 0
-187 81 0
-187 -93 0
-187 -66 0
-187 61 0
187 77 -48 46 78 88 8 -81 93 66 -61 0
-188 95 0
-188 -40 0
-188 -44 0
-188 35 0
-188 23 0
-188 99 0
-188 51 0
-188 59 0
-188 -16 0
-188 1 0
188 -95 40 44 -35 -23 -99 -51 -59 16 -1 0
-189 -46 0
-189 26 0
-189 -28 0
-189 81 0
-189 62 0
-189 -49 0
-189 -30 0
-189 58 0
-189 96 0
-189 51 0
189 46 -26 28 -81 -62 49 30 -58 -96 -51 0
-190 61 0
-190 -67 0
-190 18 0
-190 -74 0
-190 -87 0
-190 -24 0
-190 62 0
-190 60 0
-190 38 0
-190 95 0
190 -61 67 -18 74 87 24 -62 -60 -38 -95 0
181 182 183 184 185 186 187 188 189 190 0
-191 -27 0
-191 97 0
-191 3 0
-191 -9 0
-191 -48 0
-191 78 0
-191 -88 0
-191 -56 0
-191 -40 0
-191 -55 0
191 27 -97 -3 9 48 -78 88 56 40 55 0
-192 -1 0
-192 37 0
-192 -6 0
-192 -18 0
-192 -86 0
-192 -36 0
-192 -59 0
-192 -85 0
-192 45 0
-192 -83 0
192 1 -37 6 18 86 36 59 85 -45 83 0
-193 97 0
-193 -43 0
-193 -30 0
-193 86 0
-193 33 0
-193 80 0
-193 37 0
-193 -67 0
-193 -81 0
-193 8 0
193 -97 43 30 -86 -33 -80 -37 67 81 -8 0
-194 -35 0
-194 -42 0
-194 15 0
-194 -16 0
-194 8 0
-194 82 0
-194 79 0
-194 -76 0
-194 62 0
-194 69 0
194 35 42 -15 16 -8 -82 -79 76 -62 -69 0
-195 44 0
-195 18 0
-195 16 0
-195 -55 0
-195 72 0
-195 -73 0
-195 95 0
-195 -51 0
-195 47 0
-195 99 0
195 -44 -18 -16 55 -72 73 -95 51 -47 -99 0
-196 32 0
-196 45 0
-196 20 0
-196 -41 0
-196 28 0
-196 90 0
-196 -99 0
-196 -35 0
-196 50 0
-196 -74 0
196 -32 -45 -20 41 -28 -90 99 35 -50 74 0
-197 -83 0
-197 -45 0
-197 -48 0
-197 -96 0
-197 -88 0
-197 -2 0
-197 -18 0
-197 12 0
-197 -70 0
-197 28 0
197 83 45 48 96 88 2 18 -12 70 -28 0
-198 56 0
-198 75 0
-198 32 0
-198 -5 0
-198 91 0
-198 -27 0
-198 -73 0
-198 99 0
-198 96 0
-198 -48 0
198 -56 -75 -32 5 -91 27 73 -99 -96 48 0
-199 94 0
-199 -81 0
-199 80 0
-199 51 0
-199 -9 0
-199 -75 0
-199 26 0
-199 55 0
-199 -63 0
-199 41 0
199 -94 81 -80 -51 9 75 -26 -55 63 -41 0
-200 3 0
-200 58 0
-200 30 0
-200 -28 0
-200 17 0
-200 79 0
-200 52 0
-200 -31 0
-200 -83 0
-200 -19 0
200 -3 -58 -30 28 -17 -79 -52 31 83 19 0
191 192 193 194 195 196 197 198 199 200 0
